NAME : CMT8
TYPE : CVRP
COMMENT : 865.94
DIMENSION : 101
VEHICLES : 9
CAPACITY : 200
DISTANCE : 230
SERVICE_TIME : 10
EDGE_WEIGHT_TYPE : EXACT_2D
NODE_COORD_SECTION
1 41.00000 49.00000
2 35.00000 17.00000
3 55.00000 45.00000
4 55.00000 20.00000
5 15.00000 30.00000
6 25.00000 30.00000
7 20.00000 50.00000
8 10.00000 43.00000
9 55.00000 60.00000
10 30.00000 60.00000
11 20.00000 65.00000
12 50.00000 35.00000
13 30.00000 25.00000
14 15.00000 10.00000
15 30.00000 5.00000
16 10.00000 20.00000
17 5.00000 30.00000
18 20.00000 40.00000
19 15.00000 60.00000
20 45.00000 65.00000
21 45.00000 20.00000
22 45.00000 10.00000
23 55.00000 5.00000
24 65.00000 35.00000
25 65.00000 20.00000
26 45.00000 30.00000
27 35.00000 40.00000
28 41.00000 37.00000
29 64.00000 42.00000
30 40.00000 60.00000
31 31.00000 52.00000
32 35.00000 69.00000
33 53.00000 52.00000
34 65.00000 55.00000
35 63.00000 65.00000
36 2.00000 60.00000
37 20.00000 20.00000
38 5.00000 5.00000
39 60.00000 12.00000
40 40.00000 25.00000
41 42.00000 7.00000
42 24.00000 12.00000
43 23.00000 3.00000
44 11.00000 14.00000
45 6.00000 38.00000
46 2.00000 48.00000
47 8.00000 56.00000
48 13.00000 52.00000
49 6.00000 68.00000
50 47.00000 47.00000
51 49.00000 58.00000
52 27.00000 43.00000
53 37.00000 31.00000
54 57.00000 29.00000
55 63.00000 23.00000
56 53.00000 12.00000
57 32.00000 12.00000
58 36.00000 26.00000
59 21.00000 24.00000
60 17.00000 34.00000
61 12.00000 24.00000
62 24.00000 58.00000
63 27.00000 69.00000
64 15.00000 77.00000
65 62.00000 77.00000
66 49.00000 73.00000
67 67.00000 5.00000
68 56.00000 39.00000
69 37.00000 47.00000
70 37.00000 56.00000
71 57.00000 68.00000
72 47.00000 16.00000
73 44.00000 17.00000
74 46.00000 13.00000
75 49.00000 11.00000
76 49.00000 42.00000
77 53.00000 43.00000
78 61.00000 52.00000
79 57.00000 48.00000
80 56.00000 37.00000
81 55.00000 54.00000
82 15.00000 47.00000
83 14.00000 37.00000
84 11.00000 31.00000
85 16.00000 22.00000
86 4.00000 18.00000
87 28.00000 18.00000
88 26.00000 52.00000
89 26.00000 35.00000
90 31.00000 67.00000
91 15.00000 19.00000
92 22.00000 22.00000
93 18.00000 24.00000
94 26.00000 27.00000
95 25.00000 24.00000
96 22.00000 27.00000
97 25.00000 21.00000
98 19.00000 21.00000
99 20.00000 26.00000
100 18.00000 18.00000
101 35.00000 35.00000
DEMAND_SECTION
1 10
2 7
3 13
4 19
5 26
6 3
7 5
8 9
9 16
10 16
11 12
12 19
13 23
14 20
15 8
16 19
17 2
18 12
19 17
20 9
21 11
22 18
23 29
24 3
25 6
26 17
27 16
28 16
29 9
30 21
31 27
32 23
33 11
34 14
35 8
36 5
37 8
38 16
39 31
40 9
41 5
42 5
43 7
44 18
45 16
46 1
47 27
48 36
49 30
50 13
51 10
52 9
53 14
54 18
55 2
56 6
57 7
58 18
59 28
60 3
61 13
62 19
63 10
64 9
65 20
66 25
67 25
68 36
69 6
70 5
71 15
72 25
73 9
74 8
75 18
76 13
77 14
78 3
79 23
80 6
81 26
82 16
83 11
84 7
85 41
86 35
87 26
88 9
89 15
90 3
91 1
92 2
93 22
94 27
95 20
96 11
97 12
98 10
99 9
100 17
101 0
DEPOT_SECTION
101
-1
EOF
